92 4
29 40 26 36
0 0 0 0 0 3 2 3 4
4 0 0 3 0 3 6 8 14
7 0 0 8 0 3 29 34 58
1 0 3 0 0 3 5 7 20
7 8 0 0 0 3 12 41 51
8 0 0 3 0 3 9 10 23
7 0 7 0 0 3 11 32 43
8 0 5 0 0 3 19 33 57
4 0 0 0 1 2 59 84
5 2 0 0 0 2 15 55
1 3 0 0 0 3 17 37 49
6 0 0 0 1 3 13 54 64
9 0 0 5 0 3 35 38 45
4 4 0 0 0 3 16 18 31
2 0 0 10 0 3 21 50 62
1 0 0 8 0 3 22 24 25
8 0 0 8 0 3 30 74 77
4 0 2 0 0 3 36 41 71
4 0 1 0 0 1 50
6 0 0 10 0 2 61 88
1 0 1 0 0 1 47
5 0 0 0 5 3 27 28 55
9 0 6 0 0 1 26
2 0 0 0 2 2 29 79
2 0 0 2 0 3 40 63 68
10 0 0 0 7 1 55
3 0 7 0 0 1 39
4 10 0 0 0 2 34 36
10 0 0 0 7 1 85
4 3 0 0 0 1 80
6 0 0 0 7 2 48 51
6 0 10 0 0 1 82
4 0 6 0 0 3 42 44 80
5 0 0 0 8 2 71 81
1 0 10 0 0 1 81
8 0 0 0 3 2 38 56
9 0 10 0 0 1 64
8 0 9 0 0 3 40 46 67
2 0 0 5 0 1 40
1 0 3 0 0 2 70 78
8 4 0 0 0 1 78
5 0 0 0 2 3 53 67 84
1 0 0 3 0 3 60 65 68
10 0 2 0 0 2 74 90
10 0 0 0 5 3 52 87 90
2 0 0 3 0 1 48
2 0 2 0 0 2 52 53
1 0 0 0 2 1 72
6 0 1 0 0 3 57 58 76
2 0 0 3 0 1 69
4 8 0 0 0 2 60 67
2 8 0 0 0 1 77
8 0 1 0 0 3 64 72 82
2 0 0 7 0 3 69 71 76
1 0 0 0 8 1 68
2 0 0 0 10 1 63
3 0 0 0 1 2 59 62
9 0 10 0 0 1 91
4 0 1 0 0 2 66 70
2 0 2 0 0 1 81
5 0 0 8 0 1 65
7 0 0 0 10 1 63
4 0 1 0 0 2 66 73
10 0 0 0 1 1 66
3 5 0 0 0 1 76
4 0 0 0 5 1 86
1 8 0 0 0 2 73 77
2 0 0 0 6 2 72 80
6 0 0 0 8 2 70 86
6 0 9 0 0 1 89
5 6 0 0 0 1 75
6 0 0 0 6 2 74 86
2 10 0 0 0 1 75
1 0 0 2 0 2 75 79
6 0 5 0 0 1 88
8 0 0 6 0 1 85
1 0 0 0 1 1 91
1 0 0 10 0 2 79 90
3 0 9 0 0 2 83 89
5 0 2 0 0 1 82
5 0 0 9 0 2 83 84
1 0 5 0 0 1 83
10 0 0 8 0 1 85
1 3 0 0 0 1 88
8 4 0 0 0 1 87
8 0 5 0 0 1 87
5 0 0 0 7 1 91
2 0 4 0 0 1 89
9 0 3 0 0 1 92
3 0 0 0 2 1 92
6 0 0 0 1 1 92
0 0 0 0 0 0 